File "./GRP524-1/SMT.v", line 6, characters 0-15:
Warning: Interpreting this declaration as if a global declaration prefixed by
"Local", i.e. as a global declaration which shall not be available without
qualification when imported. [local-declaration,vernacular,default]
File "./GRP524-1/SMT.v", line 7, characters 0-15:
Warning: Interpreting this declaration as if a global declaration prefixed by
"Local", i.e. as a global declaration which shall not be available without
qualification when imported. [local-declaration,vernacular,default]
File "./GRP524-1/SMT.v", line 8, characters 0-30:
Warning: Interpreting this declaration as if a global declaration prefixed by
"Local", i.e. as a global declaration which shall not be available without
qualification when imported. [local-declaration,vernacular,default]
File "./GRP524-1/SMT.v", line 9, characters 0-26:
Warning: Interpreting this declaration as if a global declaration prefixed by
"Local", i.e. as a global declaration which shall not be available without
qualification when imported. [local-declaration,vernacular,default]
File "./GRP524-1/SMT.v", line 10, characters 0-32:
Warning: Interpreting this declaration as if a global declaration prefixed by
"Local", i.e. as a global declaration which shall not be available without
qualification when imported. [local-declaration,vernacular,default]
File "./GRP524-1/SMT.v", line 20, characters 2-6:
Warning: Discarding the following lemma (unsupported):
(forall A B : Z, inverse A = divide (divide B B) A)
[SMTCoq-discarding-lemma,SMTCoq,default]
File "./GRP524-1/SMT.v", line 20, characters 2-6:
Warning: Discarding the following lemma (unsupported):
(forall A B C : Z, multiply A B = divide A (divide (divide C C) B))
[SMTCoq-discarding-lemma,SMTCoq,default]
File "./GRP524-1/SMT.v", line 20, characters 2-6:
Warning: Discarding the following lemma (unsupported):
(forall A B C : Z, divide A (divide B (divide C (divide A B))) = C)
[SMTCoq-discarding-lemma,SMTCoq,default]
veriT --proof-prune --proof-merge --proof-with-sharing --cnf-definitional --disable-ackermann --input=smtlib2 --proof=/tmp/verit_coq336431.vtlog /tmp/verit_coq336431.smt2 2> /tmp/warnings_verit6f0212.log
veriT dev - the SMT-solver veriT (UFRN/LORIA).
success
success
success
success
success
unknown
success
success
Verit = 0.00007
(set-option :print-success true)
(set-option :produce-assignments true)
(set-option :produce-proofs true)
(set-logic QF_UFLIA)
(declare-fun op_0 () Int)
(declare-fun op_1 () Int)
(declare-fun op_2 (Int Int ) Int)
(assert (not (= (op_2 op_0 op_1) (op_2 op_1 op_0))))
(check-sat)
(get-model)
File "./GRP524-1/SMT.v", line 20, characters 2-5:
Error:
CVC4 returned sat. Here is the model:

a := 0
b := 1
multiply := fun BOUND_VARIABLE_288 BOUND_VARIABLE_289 => if BOUND_VARIABLE_288 = 0 then if BOUND_VARIABLE_289 = 1 then -1 else 2 else 2

